<number of tasks>
58

<cycle time>
97

<task times>
1 10
2 53
3 41
4 36
5 35
6 17
7 34
8 23
9 14
10 52
11 33
12 34
13 12
14 52
15 12
16 33
17 44
18 7
19 15
20 13
21 29
22 37
23 43
24 23
25 24
26 9
27 16
28 12
29 26
30 22
31 51
32 47
33 34
34 23
35 12
36 52
37 12
38 33
39 44
40 7
41 15
42 13
43 29
44 37
45 43
46 23
47 24
48 9
49 16
50 12
51 26
52 12
53 52
54 12
55 33
56 44
57 7
58 15

<task process alternatives>
1: 8,15 ; 12,8
2: 43,15 ; 64,8
3: 33,15 ; 50,8
4: 29,15 ; 44,8
5: 28,15 ; 42,8
6: 14,15 ; 21,8
7: 28,15 ; 41,8
8: 19,15 ; 28,8
9: 12,15 ; 17,8
10: 42,15 ; 63,8
11: 27,15 ; 40,8
12: 28,15 ; 41,8
13: 10,15 ; 15,8
14: 42,15 ; 63,8
15: 10,15 ; 15,8
16: 27,15 ; 40,8
17: 36,15 ; 53,8
18: 6,15 ; 9,8
19: 12,15 ; 18,8
20: 11,15 ; 16,8
21: 24,15 ; 35,8
22: 30,15 ; 45,8
23: 35,15 ; 52,8
24: 19,15 ; 28,8
25: 20,15 ; 29,8
26: 8,15 ; 11,8
27: 13,15 ; 20,8
28: 10,15 ; 15,8
29: 21,15 ; 32,8
30: 18,15 ; 27,8
31: 41,15 ; 62,8
32: 38,15 ; 57,8
33: 28,15 ; 41,8
34: 19,15 ; 28,8
35: 10,15 ; 15,8
36: 42,15 ; 63,8
37: 10,15 ; 15,8
38: 27,15 ; 40,8
39: 36,15 ; 53,8
40: 6,15 ; 9,8
41: 12,15 ; 18,8
42: 11,15 ; 16,8
43: 24,15 ; 35,8
44: 30,15 ; 45,8
45: 35,15 ; 52,8
46: 19,15 ; 28,8
47: 20,15 ; 29,8
48: 8,15 ; 11,8
49: 13,15 ; 20,8
50: 10,15 ; 15,8
51: 21,15 ; 32,8
52: 10,15 ; 15,8
53: 42,15 ; 63,8
54: 10,15 ; 15,8
55: 27,15 ; 40,8
56: 36,15 ; 53,8
57: 6,15 ; 9,8
58: 12,15 ; 18,8

<incompatible tasks>
17,47
25,34
2,11
19,13
42,7
31,15
23,27
57,12

<precedence relations>
55,57
25,38
44,45
6,24
50,58
3,22
23,31
9,11
11,14
1,9
36,37
28,33
45,49
37,39
45,46
13,17
54,55
15,17
33,35
41,42
18,19
6,23
26,29
32,45
20,25
43,45
51,52
29,31
46,47
3,21
46,50
7,43
38,52
40,43
17,20
34,36
19,23
27,30
11,13
49,58
28,32
5,36
37,41
45,48
47,51
56,57
8,44
16,18
2,25
24,31
42,43
20,21
4,10
12,17
21,26
35,43
22,27
52,53
14,17
57,58
31,36
39,43
48,55
21,44
11,15
37,40
36,38
53,54
54,56
30,34

<number of task attributes>
3

<task attribute values>
1,1:70
1,2:72
1,3:19
2,1:22
2,2:60
2,3:94
3,2:25
3,3:31
4,1:69
4,2:32
4,3:64
5,1:28
5,2:25
5,3:33
6,1:63
6,2:30
6,3:4
7,1:7
7,2:2
7,3:8
8,1:2
8,2:15
8,3:2
9,1:7
10,1:92
10,2:13
10,3:61
11,1:70
11,2:29
11,3:44
12,1:25
12,2:64
12,3:79
13,1:81
13,2:64
13,3:22
14,1:1
14,2:17
14,3:38
15,1:15
15,2:1
15,3:38
16,1:16
16,3:10
17,1:83
17,2:84
17,3:59
18,1:7
18,2:9
18,3:1
19,1:11
19,2:47
19,3:38
20,1:6
20,2:4
20,3:15
21,3:1
22,1:29
22,2:24
22,3:50
23,1:32
23,2:71
23,3:60
24,1:74
24,2:9
24,3:17
25,1:79
25,2:7
25,3:34
26,1:42
26,2:35
26,3:45
27,2:13
27,3:1
28,1:10
28,2:1
28,3:36
29,1:47
29,2:41
29,3:28
30,1:58
30,2:26
30,3:20
31,1:10
31,2:5
31,3:5
32,1:42
32,2:8
32,3:21
33,2:18
33,3:1
34,1:8
34,3:9
35,1:94
35,2:99
35,3:42
36,1:69
36,2:49
36,3:21
37,1:1
37,3:34
38,1:2
38,2:71
38,3:10
39,1:2
39,3:3
40,1:2
40,3:10
41,3:9
42,1:53
42,2:35
42,3:32
43,1:34
43,2:46
43,3:28
44,1:27
44,2:39
44,3:35
45,1:3
45,2:1
45,3:35
46,2:45
46,3:56
47,1:4
47,2:18
48,1:5
48,2:11
49,1:4
49,2:83
49,3:65
50,1:59
50,2:4
50,3:23
51,2:17
51,3:4
52,1:1
52,2:3
52,3:2
53,1:92
53,2:86
53,3:57
54,1:5
54,2:13
54,3:23
55,3:4
56,1:16
56,2:4
56,3:6
57,1:19
57,2:7
57,3:3
58,1:1

<attribute bounds per station>
1:100
2:100
3:100

<linked tasks>
10,52
11,19
46,47
49,58
54,55

<incompatible tasks>
1,8
1,12
1,29
1,30
1,45
1,49
1,56
1,57
2,22
2,23
2,44
2,56
3,15
3,37
3,46
3,55
3,58
4,6
4,7
4,22
4,39
4,50
4,56
5,11
5,14
5,18
5,37
5,41
5,51
5,58
6,22
6,29
6,45
7,18
7,25
7,26
7,29
8,14
8,20
8,22
8,30
8,40
8,51
8,58
9,12
9,28
9,30
9,39
9,41
9,42
9,43
9,48
10,17
10,26
10,33
10,49
10,56
10,57
11,18
11,20
11,21
11,22
11,37
12,45
12,57
13,43
13,54
14,37
14,38
14,39
14,47
14,50
15,21
15,44
15,55
15,56
16,19
16,29
16,30
16,35
16,52
17,24
17,25
17,29
17,45
18,28
18,29
18,38
18,39
18,54
18,55
19,20
19,27
19,40
19,58
20,31
20,57
21,31
21,42
21,48
21,54
22,30
22,56
23,31
23,38
23,43
24,25
24,28
24,32
24,36
24,37
24,45
24,46
25,30
25,39
25,42
25,58
26,28
26,30
26,34
26,40
26,46
26,54
26,56
27,28
27,30
27,42
27,56
28,38
29,44
30,47
31,48
31,52
32,36
32,42
32,43
32,45
32,53
32,54
33,35
33,46
34,35
34,38
34,42
34,45
34,52
34,57
35,49
36,37
36,38
36,40
36,43
36,55
36,56
37,52
38,41
39,44
39,48
39,50
41,42
42,50
44,57
45,56
46,48
46,55
47,52
50,54
51,52
51,56
51,58

<optimal SALBP-1 value>
17

<rand seed>
236278236

<end>
